0000000000000000
0000000000000000
0011111111111000
0001111111111100
0000000001000000
0000000001000000
0000000001000000
0000000001000000
0000000001000000
0000000001000000
0000000001000000
0000000001000000
0000000001000000
0000000000000000
0000000000000000
0000000000000000
